17245
1 1 1 1 1 1 1 1 1 1 0 1 0 1 1 1 0 1 0 0 1 0 0 0 0 1 0 0 0 0 
20 11 13 2 20 5 2 9 14 17 9 8 8 20 3 14 14 17 5 11 2 0 5 3 5 8 2 5 5 9 5 25 6 25 20 20 5 15 0 14 0 14 15 8 5 14 0 13 11 8 5 14 14 5 13 20 17 11 0 14 0 5 20 11 11 11 9 0 5 9 20 6 11 17 9 8 9 20 14 9 20 7 13 17 17 17 17 4 20 5 2 9 17 11 17 5 2 2 25 13 8 17 17 25 2 25 17 11 14 8 14 1 2 11 11 25 5 15 5 5 5 8 25 13 8 0 5 9 0 25 0 11 5 25 8 14 7 25 20 17 0 8 20 14 8 25 25 11 2 11 
